c generated by ere2max.py
c max 6 7 8 9 10 0
c ind 1 2 3 4 5 0
p cnf 10 30
-1 -3 4 0
-4 -7 -9 0
-4 5 9 0
3 5 8 0
-3 -7 8 0
-7 8 9 0
3 -5 -6 0
3 -4 6 0
1 3 -8 0
5 8 -10 0
2 -3 6 0
1 5 -10 0
-1 3 -5 0
-7 -8 10 0
3 -6 -8 0
1 -5 8 0
6 -7 -10 0
-3 4 -9 0
-1 4 -7 0
4 -9 10 0
-5 6 7 0
1 -6 9 0
-1 5 6 0
-1 4 -8 0
1 2 -4 0
-2 5 -8 0
-3 -5 9 0
2 7 -8 0
1 2 5 0
-2 -6 -9 0
